s td 72 7 78
b 1 1 2 14
b 2 12 13 26
b 3 53 66 67
b 4 65 77 78
b 5 2 3 14 15
b 6 11 12 25 26
b 7 3 4 17 31 45 59 73
b 8 4 5 17 31 45 59 73
b 9 5 17 19 31 45 59 73
b 10 5 19 31 33 45 59 73
b 11 5 19 33 45 47 59 73
b 12 5 19 33 47 59 61 73
b 13 5 19 33 47 61 73 75
b 14 5 7 19 33 47 61 75
b 15 5 6 7 19
b 16 7 19 21 33 47 61 75
b 17 7 9 21 33 47 61 75
b 18 7 8 9 21
b 19 9 21 33 35 47 61 75
b 20 9 21 35 47 49 61 75
b 21 9 21 35 49 61 63 75
b 22 9 21 23 35 49 63 75
b 23 9 23 35 37 49 63 75
b 24 9 23 37 49 51 63 75
b 25 9 23 37 39 51 63 75
b 26 9 11 23 37 39 51
b 27 9 10 11 23
b 28 11 23 25 37 39 51
b 29 11 23 24 25 37
b 30 11 25 26 39
b 31 25 37 38 39 51
b 32 39 51 63 75 77
b 33 39 51 63 64 77
b 34 39 51 52 64 77
b 35 63 75 76 77
b 36 37 49 50 51 63
b 37 23 35 36 37 49
b 38 9 21 22 23 35
b 39 49 61 62 63 75
b 40 35 47 48 49 61
b 41 21 33 34 35 47
b 42 7 19 20 21 33
b 43 61 73 74 75
b 44 47 59 60 61 73
b 45 33 45 46 47 59
b 46 19 31 32 33 45
b 47 5 17 18 19 31
b 48 3 17 31 45 59 71 73
b 49 3 17 31 45 57 59 71
b 50 3 17 31 45 57 69 71
b 51 3 17 31 43 45 57 69
b 52 3 17 31 43 55 57 69
b 53 3 17 29 31 43 55 69
b 54 3 17 29 41 43 55 69
b 55 3 17 29 40 41 55 69
b 56 3 15 17 29 40 41
b 57 3 15 28 29 40 41
b 58 3 14 15 28 40
b 59 14 27 28 40
b 60 3 15 16 17 29
b 61 40 41 55 67 69
b 62 40 41 54 55 67
b 63 55 67 68 69
b 64 29 41 42 43 55
b 65 17 29 30 31 43
b 66 43 55 56 57 69
b 67 31 43 44 45 57
b 68 57 69 70 71
b 69 45 57 58 59 71
b 70 59 71 72 73
b 71 40 53 54 67
b 72 52 64 65 77
1 5
2 6
3 71
4 72
5 58
6 30
7 8
7 48
8 9
9 10
9 47
10 11
10 46
11 12
11 45
12 13
12 44
13 14
13 43
14 15
14 16
16 17
16 42
17 18
17 19
19 20
19 41
20 21
20 40
21 22
21 39
22 23
22 38
23 24
23 37
24 25
24 36
25 26
25 32
26 27
26 28
28 29
28 30
28 31
32 33
32 35
33 34
34 72
48 49
48 70
49 50
49 69
50 51
50 68
51 52
51 67
52 53
52 66
53 54
53 65
54 55
54 64
55 56
55 61
56 57
56 60
57 58
58 59
61 62
61 63
62 71
